c File: flat50_3_0.col
c
c SOURCE: Joseph Culberson (joe@cs.ualberta.ca)
c DESCRIPTION: Quasi-random coloring problem
c              generated with flatness = 0
c                             probability = 0.139
c                             known coloring = 3
c                             random seed = 1174
c              Creation Date:  Tue Jun  9 12:02:57 1998
c Maximum degree = 8 Minimum degree = 2
c p edge 50 115
c cnf created by edge2cnf
p cnf 150 545
-1 -2 0
-1 -3 0
-2 -3 0
1 2 3 0
-4 -5 0
-4 -6 0
-5 -6 0
4 5 6 0
-7 -8 0
-7 -9 0
-8 -9 0
7 8 9 0
-10 -11 0
-10 -12 0
-11 -12 0
10 11 12 0
-13 -14 0
-13 -15 0
-14 -15 0
13 14 15 0
-16 -17 0
-16 -18 0
-17 -18 0
16 17 18 0
-19 -20 0
-19 -21 0
-20 -21 0
19 20 21 0
-22 -23 0
-22 -24 0
-23 -24 0
22 23 24 0
-25 -26 0
-25 -27 0
-26 -27 0
25 26 27 0
-28 -29 0
-28 -30 0
-29 -30 0
28 29 30 0
-31 -32 0
-31 -33 0
-32 -33 0
31 32 33 0
-34 -35 0
-34 -36 0
-35 -36 0
34 35 36 0
-37 -38 0
-37 -39 0
-38 -39 0
37 38 39 0
-40 -41 0
-40 -42 0
-41 -42 0
40 41 42 0
-43 -44 0
-43 -45 0
-44 -45 0
43 44 45 0
-46 -47 0
-46 -48 0
-47 -48 0
46 47 48 0
-49 -50 0
-49 -51 0
-50 -51 0
49 50 51 0
-52 -53 0
-52 -54 0
-53 -54 0
52 53 54 0
-55 -56 0
-55 -57 0
-56 -57 0
55 56 57 0
-58 -59 0
-58 -60 0
-59 -60 0
58 59 60 0
-61 -62 0
-61 -63 0
-62 -63 0
61 62 63 0
-64 -65 0
-64 -66 0
-65 -66 0
64 65 66 0
-67 -68 0
-67 -69 0
-68 -69 0
67 68 69 0
-70 -71 0
-70 -72 0
-71 -72 0
70 71 72 0
-73 -74 0
-73 -75 0
-74 -75 0
73 74 75 0
-76 -77 0
-76 -78 0
-77 -78 0
76 77 78 0
-79 -80 0
-79 -81 0
-80 -81 0
79 80 81 0
-82 -83 0
-82 -84 0
-83 -84 0
82 83 84 0
-85 -86 0
-85 -87 0
-86 -87 0
85 86 87 0
-88 -89 0
-88 -90 0
-89 -90 0
88 89 90 0
-91 -92 0
-91 -93 0
-92 -93 0
91 92 93 0
-94 -95 0
-94 -96 0
-95 -96 0
94 95 96 0
-97 -98 0
-97 -99 0
-98 -99 0
97 98 99 0
-100 -101 0
-100 -102 0
-101 -102 0
100 101 102 0
-103 -104 0
-103 -105 0
-104 -105 0
103 104 105 0
-106 -107 0
-106 -108 0
-107 -108 0
106 107 108 0
-109 -110 0
-109 -111 0
-110 -111 0
109 110 111 0
-112 -113 0
-112 -114 0
-113 -114 0
112 113 114 0
-115 -116 0
-115 -117 0
-116 -117 0
115 116 117 0
-118 -119 0
-118 -120 0
-119 -120 0
118 119 120 0
-121 -122 0
-121 -123 0
-122 -123 0
121 122 123 0
-124 -125 0
-124 -126 0
-125 -126 0
124 125 126 0
-127 -128 0
-127 -129 0
-128 -129 0
127 128 129 0
-130 -131 0
-130 -132 0
-131 -132 0
130 131 132 0
-133 -134 0
-133 -135 0
-134 -135 0
133 134 135 0
-136 -137 0
-136 -138 0
-137 -138 0
136 137 138 0
-139 -140 0
-139 -141 0
-140 -141 0
139 140 141 0
-142 -143 0
-142 -144 0
-143 -144 0
142 143 144 0
-145 -146 0
-145 -147 0
-146 -147 0
145 146 147 0
-148 -149 0
-148 -150 0
-149 -150 0
148 149 150 0
-58 -1 0
-59 -2 0
-60 -3 0
-67 -1 0
-68 -2 0
-69 -3 0
-73 -1 0
-74 -2 0
-75 -3 0
-136 -1 0
-137 -2 0
-138 -3 0
-142 -1 0
-143 -2 0
-144 -3 0
-97 -4 0
-98 -5 0
-99 -6 0
-112 -4 0
-113 -5 0
-114 -6 0
-130 -4 0
-131 -5 0
-132 -6 0
-142 -4 0
-143 -5 0
-144 -6 0
-55 -7 0
-56 -8 0
-57 -9 0
-85 -7 0
-86 -8 0
-87 -9 0
-88 -7 0
-89 -8 0
-90 -9 0
-109 -7 0
-110 -8 0
-111 -9 0
-124 -7 0
-125 -8 0
-126 -9 0
-133 -7 0
-134 -8 0
-135 -9 0
-148 -7 0
-149 -8 0
-150 -9 0
-70 -10 0
-71 -11 0
-72 -12 0
-91 -10 0
-92 -11 0
-93 -12 0
-106 -10 0
-107 -11 0
-108 -12 0
-142 -10 0
-143 -11 0
-144 -12 0
-64 -13 0
-65 -14 0
-66 -15 0
-76 -13 0
-77 -14 0
-78 -15 0
-97 -13 0
-98 -14 0
-99 -15 0
-103 -13 0
-104 -14 0
-105 -15 0
-118 -13 0
-119 -14 0
-120 -15 0
-64 -16 0
-65 -17 0
-66 -18 0
-79 -16 0
-80 -17 0
-81 -18 0
-124 -16 0
-125 -17 0
-126 -18 0
-127 -16 0
-128 -17 0
-129 -18 0
-73 -19 0
-74 -20 0
-75 -21 0
-82 -19 0
-83 -20 0
-84 -21 0
-100 -19 0
-101 -20 0
-102 -21 0
-112 -19 0
-113 -20 0
-114 -21 0
-130 -19 0
-131 -20 0
-132 -21 0
-61 -22 0
-62 -23 0
-63 -24 0
-91 -22 0
-92 -23 0
-93 -24 0
-100 -22 0
-101 -23 0
-102 -24 0
-103 -22 0
-104 -23 0
-105 -24 0
-97 -25 0
-98 -26 0
-99 -27 0
-115 -25 0
-116 -26 0
-117 -27 0
-67 -28 0
-68 -29 0
-69 -30 0
-70 -28 0
-71 -29 0
-72 -30 0
-82 -28 0
-83 -29 0
-84 -30 0
-130 -28 0
-131 -29 0
-132 -30 0
-61 -31 0
-62 -32 0
-63 -33 0
-70 -31 0
-71 -32 0
-72 -33 0
-73 -31 0
-74 -32 0
-75 -33 0
-109 -31 0
-110 -32 0
-111 -33 0
-58 -34 0
-59 -35 0
-60 -36 0
-64 -34 0
-65 -35 0
-66 -36 0
-76 -34 0
-77 -35 0
-78 -36 0
-124 -34 0
-125 -35 0
-126 -36 0
-139 -34 0
-140 -35 0
-141 -36 0
-145 -34 0
-146 -35 0
-147 -36 0
-67 -37 0
-68 -38 0
-69 -39 0
-73 -37 0
-74 -38 0
-75 -39 0
-76 -37 0
-77 -38 0
-78 -39 0
-82 -37 0
-83 -38 0
-84 -39 0
-112 -37 0
-113 -38 0
-114 -39 0
-139 -37 0
-140 -38 0
-141 -39 0
-142 -37 0
-143 -38 0
-144 -39 0
-145 -37 0
-146 -38 0
-147 -39 0
-70 -40 0
-71 -41 0
-72 -42 0
-76 -40 0
-77 -41 0
-78 -42 0
-115 -40 0
-116 -41 0
-117 -42 0
-139 -40 0
-140 -41 0
-141 -42 0
-115 -43 0
-116 -44 0
-117 -45 0
-121 -43 0
-122 -44 0
-123 -45 0
-67 -46 0
-68 -47 0
-69 -48 0
-82 -46 0
-83 -47 0
-84 -48 0
-100 -46 0
-101 -47 0
-102 -48 0
-127 -46 0
-128 -47 0
-129 -48 0
-139 -46 0
-140 -47 0
-141 -48 0
-61 -49 0
-62 -50 0
-63 -51 0
-112 -49 0
-113 -50 0
-114 -51 0
-130 -49 0
-131 -50 0
-132 -51 0
-148 -49 0
-149 -50 0
-150 -51 0
-121 -52 0
-122 -53 0
-123 -54 0
-133 -52 0
-134 -53 0
-135 -54 0
-136 -52 0
-137 -53 0
-138 -54 0
-103 -55 0
-104 -56 0
-105 -57 0
-115 -55 0
-116 -56 0
-117 -57 0
-130 -55 0
-131 -56 0
-132 -57 0
-136 -55 0
-137 -56 0
-138 -57 0
-112 -58 0
-113 -59 0
-114 -60 0
-106 -61 0
-107 -62 0
-108 -63 0
-109 -61 0
-110 -62 0
-111 -63 0
-118 -61 0
-119 -62 0
-120 -63 0
-148 -61 0
-149 -62 0
-150 -63 0
-109 -64 0
-110 -65 0
-111 -66 0
-142 -64 0
-143 -65 0
-144 -66 0
-145 -64 0
-146 -65 0
-147 -66 0
-148 -64 0
-149 -65 0
-150 -66 0
-121 -67 0
-122 -68 0
-123 -69 0
-148 -67 0
-149 -68 0
-150 -69 0
-133 -70 0
-134 -71 0
-135 -72 0
-118 -73 0
-119 -74 0
-120 -75 0
-136 -73 0
-137 -74 0
-138 -75 0
-142 -73 0
-143 -74 0
-144 -75 0
-145 -73 0
-146 -74 0
-147 -75 0
-106 -79 0
-107 -80 0
-108 -81 0
-142 -79 0
-143 -80 0
-144 -81 0
-115 -82 0
-116 -83 0
-117 -84 0
-112 -85 0
-113 -86 0
-114 -87 0
-127 -85 0
-128 -86 0
-129 -87 0
-130 -85 0
-131 -86 0
-132 -87 0
-103 -88 0
-104 -89 0
-105 -90 0
-130 -88 0
-131 -89 0
-132 -90 0
-139 -88 0
-140 -89 0
-141 -90 0
-118 -91 0
-119 -92 0
-120 -93 0
-130 -91 0
-131 -92 0
-132 -93 0
-103 -94 0
-104 -95 0
-105 -96 0
-109 -94 0
-110 -95 0
-111 -96 0
-127 -94 0
-128 -95 0
-129 -96 0
-118 -97 0
-119 -98 0
-120 -99 0
